Minimize
  x_ultrasound_technicians + x_graduate_researchers
Subject To
  c1: x_ultrasound_technicians - 2.0 x_graduate_researchers >= 0
  c2: 300 x_ultrasound_technicians + 100 x_graduate_researchers <= 14000
  c3: 8 x_ultrasound_technicians + 5 x_graduate_researchers >= 500
End